c ren 1 -> 1
c ren 2 -> 2
c ren 3 -> 3
c ren 4 -> 4
c ren 5 -> 5
c ren 6 -> 6
c ren 7 -> 7
c ren 8 -> 8
c ren 9 -> 9
c ren 10 -> 10
c ren 11 -> 11
c ren 12 -> 12
c ren 13 -> 13
c ren 14 -> 14
c ren 15 -> 15
c ren 17 -> 16
c ren 18 -> 17
c ren 19 -> 18
c ren 20 -> 19
c ren 21 -> 20
c ren 22 -> 21
c ren 23 -> 22
c ren 24 -> 23
c ren 39 -> 24
c ren 43 -> 25
c ren 54 -> 26
p cnf 26 57
a 1 2 3 4 5 6 7 8 9 10 11 12 13 14 15 16 17 18 19 0
d 20 9 10 0
d 21 18 19 0
d 22 16 17 0
d 23 15 0
e 24 25 26 0
-13 16 -18 -20 -24 0
1 2 3 4 6 7 8 9 10 11 12 13 -14 22 24 -25 -26 0
14 16 18 20 -24 0
1 2 3 4 6 7 8 9 10 11 12 13 14 15 23 24 -25 -26 0
-1 16 -18 -20 -24 0
-3 16 18 20 -24 0
-13 -22 24 -25 -26 0
-3 -22 24 -25 -26 0
14 16 -18 -20 -24 0
-3 16 -18 -20 -24 0
-4 16 18 20 -24 0
-13 16 18 20 -24 0
11 12 -19 25 0
-1 -22 24 -25 -26 0
-12 19 25 0
1 2 3 4 6 7 8 9 10 -13 20 24 -25 -26 0
-6 -22 24 -25 -26 0
1 2 3 4 6 7 8 9 10 -12 20 24 -25 -26 0
1 2 3 4 6 7 8 -10 -12 -20 24 -25 -26 0
1 2 3 4 6 7 8 -9 13 14 -21 -23 24 -25 -26 0
-5 17 26 0
-7 -22 24 -25 -26 0
-7 17 26 0
17 21 26 0
-1 16 18 20 -24 0
-6 17 26 0
1 2 3 4 6 7 8 9 10 -11 20 24 -25 -26 0
-10 -22 24 -25 -26 0
-2 16 -18 -20 -24 0
-2 -22 24 -25 -26 0
-2 16 18 20 -24 0
14 -22 24 -25 -26 0
-8 -22 24 -25 -26 0
1 2 3 4 6 7 8 -9 -13 -20 24 -25 -26 0
1 2 3 4 6 7 8 9 10 11 12 13 14 15 21 24 -25 -26 0
-4 -22 24 -25 -26 0
1 2 3 4 6 7 8 -9 -12 -20 24 -25 -26 0
1 2 3 4 6 7 8 -10 -11 -20 24 -25 -26 0
-11 -22 24 -25 -26 0
1 2 3 4 6 7 8 -12 13 14 -21 -23 24 -25 -26 0
-4 16 -18 -20 -24 0
1 2 3 4 6 7 8 -10 -13 -20 24 -25 -26 0
1 2 3 4 6 7 8 9 10 14 -15 20 24 -25 -26 0
-11 19 25 0
1 2 3 4 6 7 8 -9 -11 -20 24 -25 -26 0
1 2 3 4 13 -14 -16 -18 -20 -24 0
1 2 3 4 13 -14 -16 18 20 -24 0
1 2 3 4 -5 6 24 -25 -26 0
1 2 3 4 6 7 8 -9 14 -15 -20 24 -25 -26 0
1 2 3 4 6 7 8 -10 13 14 -21 -23 24 -25 -26 0
-5 -22 24 -25 -26 0
1 2 3 4 6 7 8 -11 13 14 -21 -23 24 -25 -26 0
1 2 3 4 6 7 8 -10 14 -15 -20 24 -25 -26 0
5 6 7 8 -17 -21 26 0
-8 17 26 0
-9 -22 24 -25 -26 0
-12 -22 24 -25 -26 0
